1 1 -2 0
1 1 3 0
1 1 -4 0
1 2 5 0
1 2 -1 0
1 -2 4 0
1 -6 -7 0
1 6 -5 0
1 6 -3 0
1 6 8 0
1 -6 -4 0
1 -6 9 0
1 -7 10 0
1 7 -5 0
1 -7 -8 0
1 -7 -6 0
1 -3 -11 0
1 -3 12 0
1 3 13 0
1 3 -14 0
1 -9 -15 0
1 9 -12 0
1 9 3 0
1 9 6 0
1 -9 -1 0
1 5 -7 0
1 -5 16 0
1 5 -17 0
1 4 -11 0
1 4 18 0
1 -4 -6 0
1 -4 1 0
1 -4 19 0
1 -14 10 0
1 14 -20 0
1 -14 21 0
1 14 8 0
1 14 17 0
1 -22 12 0
1 22 23 0
1 22 24 0
1 22 -25 0
1 22 -26 0
1 12 18 0
1 12 27 0
1 -12 24 0
1 -12 25 0
1 12 -28 0
1 8 -20 0
1 8 -12 0
1 8 -21 0
1 8 -7 0
1 8 29 0
1 -8 14 0
1 8 -6 0
1 8 30 0
1 20 -31 0
1 20 -12 0
1 -20 -21 0
1 -20 -7 0
1 20 32 0
1 -20 29 0
1 20 -30 0
1 24 10 0
1 -24 11 0
1 24 21 0
1 24 7 0
1 24 -33 0
1 -24 -34 0
1 24 -13 0
1 -24 14 0
1 -24 6 0
1 -10 -35 0
1 10 12 0
1 -10 22 0
1 10 14 0
1 10 -6 0
1 -10 -30 0
1 29 31 0
1 29 -20 0
1 29 -23 0
1 -29 27 0
1 -29 -8 0
1 -29 -25 0
1 29 28 0
1 31 23 0
1 -31 -27 0
1 31 8 0
1 32 27 0
1 -32 -34 0
1 -32 -8 0
1 -32 -28 0
1 -36 -35 0
1 36 -20 0
1 -36 -28 0
1 -28 -36 0
1 -28 31 0
1 28 12 0
1 28 27 0
1 28 32 0
1 -28 -29 0
1 -27 -36 0
1 -27 -32 0
1 27 29 0
1 27 22 0
1 -25 36 0
1 25 -31 0
1 25 -23 0
1 -25 37 0
1 25 -33 0
1 25 -22 0
1 -25 -30 0
1 -23 -31 0
1 23 12 0
1 23 32 0
1 -23 -25 0
1 -23 38 0
1 17 -39 0
1 -17 -40 0
1 17 -4 0
1 -39 21 0
1 39 41 0
1 -39 -5 0
1 39 40 0
1 39 42 0
1 39 17 0
1 26 43 0
1 26 40 0
1 26 -22 0
1 -26 44 0
1 26 4 0
1 -18 45 0
1 -18 -5 0
1 -18 -46 0
1 18 -44 0
1 -41 42 0
1 -41 -11 0
1 41 -13 0
1 41 17 0
1 42 35 0
1 -42 -39 0
1 -42 -34 0
1 42 26 0
1 45 -18 0
1 45 40 0
1 40 18 0
1 40 17 0
1 -13 10 0
1 13 -11 0
1 13 41 0
1 13 43 0
1 13 -29 0
1 13 44 0
1 11 -10 0
1 -11 41 0
1 -11 -43 0
1 -11 -47 0
1 -11 5 0
1 11 24 0
1 11 -13 0
1 -11 -42 0
1 11 4 0
1 34 15 0
1 -34 -10 0
1 -34 41 0
1 34 48 0
1 34 -32 0
1 -35 -15 0
1 35 -36 0
1 -35 41 0
1 35 43 0
1 -35 47 0
1 35 -16 0
1 35 48 0
1 35 24 0
1 -35 34 0
1 35 -46 0
1 35 19 0
1 -47 35 0
1 47 11 0
1 -47 18 0
1 -47 -33 0
1 -47 34 0
1 47 -13 0
1 -47 -44 0
1 44 -35 0
1 44 -11 0
1 44 -18 0
1 -44 -47 0
1 44 -33 0
1 44 13 0
1 -43 35 0
1 -43 18 0
1 43 -34 0
1 -43 -26 0
1 46 -18 0
1 -46 13 0
1 46 -26 0
1 33 -15 0
1 33 23 0
1 -33 8 0
1 -33 25 0
1 -33 19 0
1 -30 -20 0
1 30 -47 0
1 -30 -16 0
1 30 33 0
1 30 24 0
1 -30 -8 0
1 -30 44 0
1 30 -19 0
1 -37 15 0
1 -37 -48 0
1 -37 25 0
1 37 -38 0
1 -38 -23 0
1 38 -37 0
1 38 25 0
1 -38 -44 0
1 48 -15 0
1 48 37 0
1 48 -33 0
1 48 3 0
1 48 34 0
1 48 38 0
1 48 -30 0
1 15 34 0
1 -15 30 0
1 16 35 0
1 -16 -33 0
1 16 34 0
1 16 -30 0
1 19 37 0
1 19 16 0
1 -19 33 0
1 -19 -34 0
1 19 38 0
